70
3 0 4
3 1 1
4 0 2
4 2 1
5 0 1
5 3 1
5 4 3
6 2 2
6 3 1
6 4 1
7 0 1
7 1 1
7 4 4
8 0 2
8 1 4
8 4 3
8 6 3
8 7 4
9 0 2
9 2 2
9 3 1
9 4 1
9 5 2
10 4 1
10 9 3
11 2 3
11 4 4
11 5 4
11 6 1
11 9 2
11 10 3
12 2 4
12 3 3
12 4 4
12 7 2
12 8 1
12 9 2
12 10 1
13 0 2
13 1 2
13 2 4
13 5 3
13 6 1
13 8 2
13 10 2
13 11 2
14 1 4
14 3 3
14 5 1
14 6 4
14 10 3
14 13 4
15 2 4
15 4 3
15 5 1
15 7 1
15 8 3
15 10 4
15 12 1
15 14 4
16 0 4
16 3 4
16 4 3
16 5 3
16 6 3
16 8 2
16 10 1
16 11 3
16 13 4
16 14 1
17 2 4
17 3 4
17 4 2
17 5 4
17 11 2
17 12 2
17 13 1
17 16 3
18 1 3
18 4 4
18 5 3
18 6 2
18 10 4
18 12 1
18 15 2
18 16 4
19 0 1
19 1 2
19 4 1
19 6 2
19 10 2
19 11 2
19 12 3
19 13 4
19 15 3
20 0 3
20 1 1
20 4 1
20 6 1
20 7 1
20 9 3
20 13 2
21 1 3
21 2 3
21 3 3
21 8 3
21 9 3
21 12 1
21 13 3
21 15 4
21 16 4
21 17 4
21 18 3
21 20 2
22 0 4
22 1 4
22 3 1
22 5 1
22 6 3
22 11 2
22 12 1
22 14 3
22 17 3
22 19 3
23 2 2
23 4 2
23 5 4
23 6 2
23 8 2
23 9 3
23 12 2
23 13 3
23 14 1
23 21 4
24 0 3
24 2 3
24 4 3
24 5 2
24 6 3
24 7 1
24 11 4
24 12 1
24 13 4
24 14 3
24 15 2
24 16 1
24 17 3
24 18 1
24 20 3
25 3 3
25 5 1
25 6 4
25 14 4
25 15 1
25 16 2
25 19 1
25 20 1
25 22 2
25 23 4
26 1 3
26 2 3
26 3 3
26 5 3
26 6 3
26 8 2
26 10 3
26 11 3
26 15 3
26 17 3
26 18 4
26 20 1
26 23 4
26 24 1
26 25 1
27 2 1
27 8 2
27 12 4
27 13 4
27 16 2
27 24 3
27 26 1
28 3 1
28 6 2
28 14 3
28 24 3
28 27 2
29 1 2
29 2 4
29 4 1
29 7 2
29 10 1
29 12 4
29 13 3
29 15 1
29 17 1
29 18 2
29 20 3
29 22 1
29 23 3
29 24 3
29 28 3
30 1 4
30 2 3
30 3 2
30 4 2
30 6 2
30 12 4
30 13 3
30 14 2
30 17 3
30 18 3
30 20 3
30 24 1
30 25 3
30 26 4
30 28 1
31 0 1
31 1 2
31 2 1
31 3 3
31 7 3
31 8 4
31 9 2
31 11 3
31 13 4
31 14 4
31 15 4
31 16 1
31 17 1
31 21 2
31 22 4
31 23 3
31 27 1
31 29 3
32 0 4
32 2 1
32 3 4
32 7 2
32 11 2
32 12 1
32 15 4
32 17 1
32 19 3
32 21 1
32 24 2
32 25 4
32 27 2
33 0 1
33 2 3
33 3 2
33 4 4
33 5 4
33 9 2
33 12 3
33 15 1
33 17 4
33 18 1
33 21 4
33 23 1
33 25 2
33 26 3
33 28 2
33 29 4
33 30 1
33 31 3
33 32 2
34 1 3
34 3 3
34 5 2
34 7 3
34 9 2
34 11 2
34 12 2
34 13 4
34 14 2
34 16 2
34 19 3
34 22 3
34 26 2
34 27 1
34 28 4
34 29 3
34 30 1
34 31 1
34 33 3
35 2 2
35 5 4
35 7 3
35 8 3
35 9 1
35 14 3
35 15 2
35 16 2
35 20 4
35 21 4
35 22 1
35 23 1
35 25 3
35 27 3
35 29 2
35 30 1
35 32 3
35 33 3
36 4 2
36 5 4
36 10 3
36 12 4
36 14 4
36 16 4
36 19 4
36 22 2
36 25 1
36 26 3
36 35 1
37 0 1
37 1 3
37 2 4
37 5 4
37 6 1
37 7 1
37 8 4
37 12 2
37 13 1
37 25 4
37 27 1
37 30 2
37 31 1
37 33 3
38 0 3
38 1 3
38 3 3
38 4 4
38 7 4
38 10 2
38 13 3
38 15 2
38 16 2
38 17 2
38 23 1
38 24 4
38 26 4
38 28 4
38 30 3
38 31 2
38 32 3
38 33 2
38 34 2
38 35 3
38 36 4
39 1 4
39 2 4
39 5 1
39 6 4
39 7 3
39 9 3
39 12 2
39 18 1
39 19 2
39 20 3
39 22 3
39 23 1
39 24 4
39 26 3
39 27 1
39 29 4
39 30 4
39 34 1
39 35 1
39 38 2
40 6 4
40 7 3
40 9 3
40 12 4
40 14 4
40 15 3
40 17 4
40 18 2
40 22 1
40 23 4
40 26 2
40 27 2
40 31 4
40 35 1
40 39 2
41 3 2
41 5 4
41 6 4
41 8 3
41 10 2
41 11 1
41 13 1
41 14 3
41 16 2
41 18 2
41 20 3
41 22 3
41 25 2
41 27 4
41 29 2
41 32 3
41 33 3
41 38 1
42 3 3
42 4 4
42 5 3
42 6 1
42 7 2
42 10 3
42 11 1
42 12 1
42 13 3
42 17 3
42 20 2
42 23 3
42 26 1
42 28 1
42 30 3
42 31 3
42 32 2
42 34 4
42 35 3
42 36 3
42 37 4
42 39 3
43 0 4
43 5 4
43 7 1
43 8 4
43 9 2
43 10 3
43 11 2
43 12 2
43 13 3
43 15 3
43 17 3
43 18 3
43 20 4
43 21 1
43 22 2
43 26 4
43 28 3
43 30 4
43 31 3
43 34 4
43 36 3
43 37 2
43 38 2
43 40 4
43 42 2
44 0 2
44 2 4
44 4 3
44 6 1
44 8 1
44 11 3
44 13 2
44 15 3
44 17 1
44 21 1
44 23 4
44 30 3
44 31 4
44 32 2
44 34 4
44 37 4
44 38 4
44 39 1
44 40 4
44 43 3
45 0 3
45 4 1
45 15 1
45 16 4
45 20 3
45 34 3
45 35 2
45 36 2
45 37 2
45 38 2
45 41 4
45 42 3
45 44 2
46 0 1
46 3 4
46 7 3
46 8 4
46 9 2
46 10 2
46 11 1
46 13 4
46 15 2
46 17 1
46 18 2
46 20 2
46 23 2
46 24 3
46 26 1
46 27 4
46 29 3
46 30 2
46 32 3
46 34 3
46 36 4
46 37 2
46 38 2
46 39 3
46 40 2
46 43 1
46 45 3
47 0 4
47 1 3
47 2 2
47 3 1
47 8 4
47 10 3
47 11 4
47 13 1
47 17 4
47 19 1
47 20 3
47 21 3
47 23 3
47 33 2
47 34 1
47 37 3
47 38 4
47 40 2
47 41 4
47 44 2
47 45 3
48 0 1
48 1 4
48 4 1
48 5 1
48 6 2
48 7 3
48 9 4
48 13 3
48 14 3
48 15 3
48 17 2
48 18 4
48 19 2
48 21 3
48 24 3
48 25 4
48 29 1
48 33 2
48 34 4
48 42 2
48 43 3
48 44 2
48 46 3
48 47 2
49 0 1
49 1 4
49 2 1
49 3 1
49 4 1
49 7 1
49 8 4
49 9 3
49 10 3
49 13 3
49 14 4
49 15 2
49 17 1
49 19 3
49 20 2
49 21 4
49 25 2
49 26 3
49 27 1
49 28 3
49 29 2
49 30 2
49 31 3
49 34 2
49 35 1
49 38 1
49 39 4
49 40 1
49 41 2
49 43 4
49 45 4
49 46 2
50 3 3
50 4 2
50 5 4
50 7 2
50 8 3
50 9 1
50 10 4
50 12 1
50 17 3
50 18 2
50 20 1
50 21 4
50 22 4
50 23 3
50 27 1
50 28 3
50 29 4
50 31 2
50 35 3
50 40 3
50 43 2
50 44 1
50 45 4
50 46 4
50 47 2
50 49 2
51 1 2
51 7 4
51 10 4
51 13 1
51 15 4
51 17 3
51 18 2
51 19 3
51 20 3
51 21 1
51 22 3
51 24 3
51 25 4
51 26 1
51 27 4
51 29 4
51 32 4
51 33 4
51 34 1
51 37 3
51 38 4
51 39 4
51 42 2
51 43 4
51 44 4
51 45 3
51 46 4
51 47 2
51 48 2
52 1 3
52 2 3
52 3 2
52 5 2
52 7 4
52 8 4
52 9 1
52 10 3
52 12 1
52 13 4
52 14 1
52 15 2
52 19 4
52 21 4
52 22 1
52 23 1
52 28 3
52 32 4
52 33 4
52 35 4
52 36 4
52 39 4
52 40 3
52 41 1
52 42 3
52 45 1
52 46 1
52 49 2
52 50 3
52 51 2
53 0 4
53 1 3
53 2 3
53 3 4
53 6 2
53 7 1
53 9 3
53 10 3
53 11 3
53 20 1
53 21 1
53 24 2
53 25 1
53 27 3
53 29 3
53 30 1
53 32 4
53 34 4
53 37 2
53 38 4
53 39 2
53 41 4
53 45 3
53 46 1
53 50 3
54 0 3
54 1 3
54 2 3
54 5 3
54 8 1
54 10 1
54 11 2
54 14 1
54 15 1
54 17 1
54 18 3
54 20 3
54 24 4
54 28 4
54 29 1
54 30 2
54 36 4
54 37 2
54 38 2
54 42 3
54 46 2
54 48 4
54 49 2
55 1 3
55 5 2
55 9 1
55 10 4
55 14 2
55 16 2
55 17 4
55 19 4
55 21 2
55 22 1
55 23 4
55 25 1
55 26 2
55 27 3
55 30 1
55 31 1
55 32 2
55 33 1
55 35 2
55 39 1
55 41 4
55 43 1
55 44 2
55 46 4
55 50 4
55 53 4
55 54 4
56 0 4
56 4 2
56 7 3
56 8 1
56 9 4
56 11 3
56 17 2
56 18 2
56 19 2
56 20 1
56 21 3
56 23 3
56 24 2
56 28 2
56 29 4
56 32 2
56 33 2
56 39 4
56 41 3
56 44 1
56 47 2
56 49 3
56 51 4
56 52 4
56 53 2
56 54 3
57 2 4
57 4 1
57 6 4
57 7 1
57 8 2
57 9 4
57 11 4
57 12 2
57 13 2
57 14 1
57 15 1
57 16 2
57 18 1
57 22 1
57 23 3
57 25 2
57 26 4
57 30 2
57 31 3
57 32 2
57 33 3
57 34 1
57 36 4
57 38 4
57 39 2
57 40 3
57 41 4
57 42 2
57 44 4
57 47 2
57 52 3
57 53 4
58 1 1
58 2 3
58 5 3
58 6 2
58 9 2
58 12 2
58 13 1
58 16 3
58 20 3
58 21 2
58 23 2
58 24 2
58 25 4
58 26 1
58 27 1
58 28 1
58 32 4
58 33 1
58 37 2
58 39 1
58 40 3
58 41 1
58 42 2
58 46 1
58 50 4
58 51 1
58 53 4
58 54 4
58 56 2
58 57 4
59 0 2
59 2 1
59 3 1
59 4 4
59 7 2
59 9 4
59 11 3
59 13 3
59 18 1
59 19 2
59 22 1
59 27 2
59 33 3
59 34 2
59 38 4
59 39 4
59 40 2
59 41 4
59 42 2
59 46 3
59 48 4
59 49 4
59 50 2
59 52 3
59 53 4
59 55 1
59 56 2
59 58 4
60 1 3
60 2 3
60 3 2
60 4 4
60 6 1
60 7 4
60 9 1
60 12 4
60 13 2
60 14 2
60 16 2
60 17 4
60 18 1
60 19 1
60 20 4
60 21 2
60 22 2
60 26 4
60 27 3
60 30 2
60 32 4
60 33 4
60 35 2
60 36 4
60 37 2
60 38 2
60 39 3
60 47 3
60 48 3
60 49 4
60 52 3
60 54 3
60 55 3
60 59 3
61 2 4
61 5 4
61 6 2
61 7 3
61 8 1
61 9 1
61 13 1
61 15 1
61 19 3
61 20 2
61 21 1
61 23 4
61 24 1
61 25 1
61 26 4
61 31 3
61 39 2
61 41 3
61 42 4
61 43 3
61 47 1
61 49 2
61 50 4
61 52 3
61 53 4
61 54 4
61 57 4
61 58 2
61 59 1
62 1 1
62 3 1
62 5 3
62 8 4
62 12 1
62 13 3
62 15 3
62 16 3
62 17 4
62 19 1
62 20 4
62 21 1
62 24 1
62 25 4
62 26 4
62 29 2
62 30 4
62 31 3
62 32 2
62 34 4
62 36 1
62 40 1
62 43 1
62 45 2
62 49 1
62 50 2
62 51 2
62 52 4
62 54 2
62 56 4
63 0 3
63 1 2
63 3 3
63 4 2
63 5 4
63 7 2
63 11 4
63 14 3
63 19 3
63 20 1
63 21 3
63 22 2
63 23 4
63 25 1
63 26 1
63 29 4
63 30 3
63 31 1
63 32 1
63 34 3
63 35 2
63 37 4
63 40 2
63 41 4
63 43 2
63 50 1
63 52 4
63 53 4
63 57 1
63 59 4
63 61 1
63 62 3
64 4 1
64 5 4
64 7 1
64 8 2
64 9 2
64 12 2
64 14 2
64 15 2
64 22 4
64 25 1
64 26 2
64 27 3
64 28 2
64 29 4
64 31 4
64 32 4
64 36 2
64 37 3
64 39 3
64 43 2
64 47 4
64 48 4
64 51 2
64 55 4
64 57 3
64 59 1
65 0 1
65 3 1
65 5 4
65 6 1
65 13 4
65 16 2
65 17 3
65 19 3
65 21 2
65 22 1
65 23 2
65 24 4
65 25 4
65 26 1
65 27 4
65 30 4
65 32 1
65 34 2
65 36 4
65 38 1
65 39 1
65 43 1
65 45 3
65 48 1
65 49 2
65 50 4
65 51 4
65 53 4
65 54 1
65 55 4
65 58 3
65 61 1
65 62 3
66 0 2
66 2 3
66 3 1
66 4 2
66 5 1
66 6 1
66 9 1
66 10 2
66 12 3
66 15 1
66 20 1
66 21 2
66 23 1
66 25 3
66 26 4
66 27 3
66 31 4
66 41 3
66 43 1
66 44 1
66 50 2
66 52 3
66 54 2
66 55 3
66 58 4
66 59 2
66 60 3
66 62 4
66 63 3
67 1 3
67 5 1
67 6 4
67 8 2
67 9 1
67 10 4
67 12 4
67 13 3
67 14 1
67 16 2
67 17 4
67 20 1
67 22 2
67 23 3
67 25 1
67 26 2
67 28 4
67 33 2
67 37 2
67 38 2
67 39 2
67 40 3
67 41 1
67 43 2
67 45 2
67 50 1
67 51 2
67 52 4
67 55 4
67 57 3
67 59 4
67 61 2
67 65 3
67 66 1
68 2 4
68 3 1
68 5 2
68 7 1
68 8 1
68 9 4
68 10 2
68 11 4
68 12 4
68 13 1
68 15 2
68 19 4
68 20 1
68 21 2
68 23 2
68 26 2
68 28 3
68 29 2
68 31 1
68 34 4
68 37 3
68 40 3
68 41 3
68 43 2
68 44 1
68 45 2
68 52 3
68 54 3
68 59 4
68 60 4
69 1 3
69 3 3
69 4 4
69 10 2
69 11 1
69 12 1
69 15 3
69 17 3
69 18 2
69 19 3
69 21 3
69 22 1
69 30 3
69 32 2
69 33 2
69 34 3
69 36 3
69 38 3
69 40 2
69 41 1
69 43 2
69 47 4
69 48 4
69 50 3
69 53 4
69 61 3
69 65 2
69 68 3
